language ESSENCE' 1.0

letting boxes_PartitionAsSet_ExplicitR6_ExplicitVarSizeWithDummy be
        [[1, 5, 5, 5; int(1..4)], [2, 5, 5, 5; int(1..4)], [3, 5, 5, 5; int(1..4)], [4, 5, 5, 5; int(1..4)]; int(1..4)]
$ Visualisation for boxes_PartitionAsSet_ExplicitR6_ExplicitVarSizeWithDummy
$ 1 5 5 5
$ 2 5 5 5
$ 3 5 5 5
$ 4 5 5 5

